60
1071
4
19
48
46
57
0 1
0 2
0 4
0 5
0 7
0 8
0 9
0 10
0 11
0 12
0 13
0 14
0 15
0 16
0 19
0 22
0 23
0 24
0 25
0 28
0 29
0 30
0 31
0 32
0 33
0 34
0 37
0 39
0 41
0 42
0 43
0 47
0 49
0 51
0 52
0 54
0 55
0 56
0 57
1 3
1 4
1 5
1 6
1 7
1 11
1 12
1 13
1 14
1 15
1 16
1 17
1 18
1 19
1 20
1 21
1 22
1 27
1 28
1 29
1 30
1 31
1 32
1 33
1 34
1 42
1 44
1 45
1 46
1 47
1 48
1 49
1 55
1 57
1 59
2 4
2 5
2 6
2 8
2 10
2 12
2 14
2 16
2 17
2 18
2 20
2 22
2 26
2 27
2 28
2 29
2 30
2 31
2 32
2 33
2 34
2 35
2 36
2 37
2 39
2 40
2 44
2 46
2 47
2 48
2 49
2 50
2 51
2 52
2 54
2 56
2 57
2 59
3 4
3 7
3 8
3 9
3 10
3 12
3 13
3 15
3 16
3 17
3 18
3 19
3 20
3 22
3 24
3 26
3 27
3 29
3 30
3 31
3 32
3 34
3 35
3 37
3 38
3 39
3 40
3 41
3 42
3 44
3 45
3 46
3 47
3 48
3 49
3 51
3 54
3 56
3 57
3 58
3 59
4 6
4 7
4 9
4 12
4 13
4 15
4 16
4 17
4 19
4 20
4 21
4 23
4 24
4 25
4 27
4 28
4 31
4 32
4 33
4 34
4 35
4 36
4 37
4 38
4 39
4 40
4 46
4 47
4 48
4 49
4 51
4 52
4 54
4 56
4 57
4 59
5 6
5 14
5 16
5 17
5 19
5 21
5 22
5 23
5 28
5 30
5 31
5 32
5 35
5 36
5 38
5 39
5 40
5 42
5 46
5 47
5 48
5 49
5 50
5 52
5 58
5 59
6 7
6 9
6 10
6 12
6 13
6 14
6 15
6 16
6 18
6 21
6 24
6 25
6 26
6 27
6 28
6 29
6 30
6 31
6 34
6 35
6 36
6 37
6 38
6 39
6 43
6 44
6 46
6 47
6 50
6 52
6 55
6 56
6 58
7 8
7 9
7 12
7 14
7 15
7 16
7 17
7 18
7 19
7 20
7 21
7 24
7 25
7 26
7 27
7 28
7 29
7 30
7 35
7 38
7 39
7 41
7 44
7 45
7 47
7 49
7 50
7 51
7 52
7 53
7 59
8 12
8 17
8 19
8 22
8 26
8 28
8 29
8 30
8 34
8 35
8 36
8 38
8 39
8 41
8 42
8 43
8 44
8 45
8 47
8 48
8 54
8 57
8 58
8 59
9 10
9 11
9 14
9 16
9 17
9 23
9 24
9 25
9 26
9 30
9 31
9 32
9 33
9 34
9 36
9 37
9 38
9 39
9 40
9 43
9 44
9 46
9 47
9 49
9 50
9 51
9 56
10 12
10 13
10 14
10 17
10 18
10 19
10 20
10 21
10 26
10 28
10 29
10 30
10 35
10 36
10 39
10 40
10 45
10 47
10 48
10 50
10 52
10 53
10 54
10 56
10 57
10 58
10 59
11 12
11 13
11 14
11 16
11 17
11 18
11 19
11 21
11 23
11 26
11 29
11 33
11 35
11 37
11 38
11 41
11 42
11 49
11 50
11 53
11 54
11 55
11 56
11 57
11 58
11 59
12 13
12 14
12 15
12 16
12 17
12 18
12 19
12 20
12 22
12 23
12 24
12 26
12 27
12 28
12 30
12 37
12 38
12 39
12 41
12 42
12 43
12 44
12 47
12 48
12 49
12 51
12 52
12 53
12 54
12 55
12 56
12 57
12 58
13 15
13 16
13 18
13 19
13 20
13 23
13 25
13 27
13 28
13 29
13 30
13 31
13 35
13 37
13 38
13 39
13 40
13 42
13 44
13 45
13 46
13 49
13 50
13 51
13 52
13 54
13 56
13 57
13 58
14 15
14 16
14 17
14 18
14 20
14 23
14 24
14 25
14 27
14 28
14 31
14 32
14 33
14 34
14 35
14 37
14 44
14 46
14 47
14 48
14 49
14 50
14 51
14 54
14 55
14 56
14 59
15 16
15 18
15 19
15 23
15 24
15 25
15 26
15 27
15 30
15 31
15 35
15 36
15 38
15 39
15 41
15 42
15 45
15 46
15 51
15 52
15 54
15 55
15 58
16 17
16 18
16 19
16 20
16 21
16 22
16 23
16 25
16 26
16 27
16 29
16 30
16 31
16 32
16 33
16 36
16 38
16 39
16 41
16 44
16 48
16 49
16 50
16 52
16 53
16 55
16 57
16 58
17 20
17 21
17 22
17 23
17 26
17 27
17 29
17 31
17 34
17 35
17 36
17 37
17 40
17 44
17 45
17 47
17 49
17 53
17 54
17 55
17 56
17 58
17 59
18 19
18 21
18 23
18 24
18 26
18 28
18 30
18 31
18 32
18 34
18 35
18 42
18 43
18 44
18 45
18 46
18 47
18 49
18 50
18 51
18 52
18 53
18 55
18 59
19 21
19 23
19 24
19 25
19 27
19 28
19 29
19 30
19 31
19 32
19 33
19 35
19 40
19 41
19 44
19 45
19 46
19 47
19 49
19 54
19 55
20 21
20 23
20 24
20 25
20 28
20 30
20 31
20 33
20 35
20 36
20 37
20 38
20 39
20 41
20 43
20 44
20 45
20 46
20 47
20 48
20 49
20 50
20 52
20 53
20 54
20 55
20 56
20 57
21 22
21 23
21 24
21 26
21 29
21 30
21 31
21 35
21 36
21 39
21 40
21 41
21 42
21 43
21 45
21 46
21 48
21 49
21 52
21 53
21 54
21 56
21 59
22 24
22 26
22 27
22 28
22 30
22 31
22 32
22 36
22 37
22 39
22 40
22 41
22 45
22 46
22 47
22 48
22 49
22 51
22 56
22 57
22 58
22 59
23 24
23 26
23 27
23 29
23 33
23 35
23 36
23 37
23 38
23 39
23 41
23 46
23 47
23 48
23 49
23 51
23 55
23 57
23 58
23 59
24 25
24 27
24 28
24 31
24 33
24 34
24 36
24 37
24 38
24 40
24 46
24 47
24 49
24 50
24 51
24 53
24 54
24 57
24 59
25 26
25 27
25 29
25 30
25 31
25 33
25 34
25 35
25 37
25 39
25 40
25 43
25 45
25 47
25 50
25 51
25 52
25 53
25 55
25 59
26 29
26 31
26 32
26 33
26 34
26 35
26 36
26 37
26 38
26 39
26 41
26 42
26 43
26 44
26 45
26 46
26 51
26 52
26 54
26 55
26 57
26 59
27 29
27 30
27 32
27 33
27 34
27 37
27 39
27 41
27 43
27 45
27 46
27 48
27 49
27 51
27 53
27 54
27 55
27 56
27 58
28 29
28 30
28 31
28 33
28 34
28 35
28 38
28 39
28 40
28 41
28 42
28 43
28 45
28 46
28 47
28 50
28 51
28 52
28 53
28 55
28 56
28 57
28 58
28 59
29 30
29 32
29 33
29 34
29 35
29 37
29 40
29 44
29 45
29 46
29 47
29 49
29 50
29 52
29 54
29 57
29 59
30 31
30 33
30 34
30 35
30 36
30 39
30 40
30 42
30 44
30 45
30 46
30 47
30 50
30 51
30 53
30 54
30 55
30 56
30 59
31 32
31 33
31 35
31 36
31 37
31 39
31 40
31 41
31 42
31 43
31 44
31 45
31 46
31 47
31 48
31 51
31 52
31 56
31 57
32 33
32 34
32 35
32 36
32 37
32 44
32 49
32 50
32 51
32 52
32 54
32 55
32 56
32 57
32 58
33 34
33 35
33 36
33 37
33 39
33 40
33 41
33 42
33 43
33 45
33 47
33 49
33 51
33 53
33 56
33 57
33 59
34 37
34 39
34 40
34 41
34 43
34 45
34 48
34 49
34 51
34 53
34 54
34 55
34 58
34 59
35 36
35 37
35 41
35 42
35 46
35 49
35 51
35 52
35 53
35 54
35 56
35 57
35 59
36 39
36 40
36 41
36 43
36 50
36 51
36 52
36 53
36 55
36 57
36 58
36 59
37 39
37 42
37 45
37 47
37 48
37 50
37 51
37 54
37 55
37 56
37 57
37 58
38 39
38 40
38 41
38 44
38 46
38 47
38 48
38 49
38 50
38 51
38 52
38 53
38 54
38 55
38 56
38 57
38 58
38 59
39 40
39 43
39 44
39 48
39 51
39 54
39 56
39 57
39 59
40 42
40 43
40 44
40 46
40 48
40 49
40 51
40 52
40 53
40 54
41 42
41 43
41 44
41 47
41 48
41 49
41 51
41 52
41 56
41 58
41 59
42 43
42 44
42 47
42 49
42 50
42 51
42 53
42 55
42 57
42 59
43 44
43 46
43 49
43 50
43 52
43 56
43 57
43 58
43 59
44 47
44 48
44 49
44 50
44 51
44 52
44 53
44 55
44 56
44 57
44 59
45 46
45 47
45 49
45 50
45 52
45 53
45 54
45 57
45 59
46 47
46 48
46 52
46 53
46 54
46 55
46 57
46 58
47 50
47 51
47 52
47 54
47 55
47 57
47 58
47 59
48 50
48 51
48 52
48 53
48 54
48 55
48 58
49 50
49 51
49 52
49 53
49 55
49 56
49 57
49 58
49 59
50 52
50 55
50 57
50 58
50 59
51 52
51 53
51 54
51 57
51 58
51 59
52 53
52 55
52 57
52 58
53 54
53 55
53 56
54 55
54 56
54 59
55 56
55 58
55 59
56 58
56 59
8 4 56 43 41 14 26 46 12 36 6 18 58 42 25
23 5 33 49 10 55 54 35 7 2 59 27 24 22 15
39 19 28 3 45 0 37 32 29 30 31 21 47 50 16
34 44 51 1 52 13 9 38 53 11 40 48 57 17 20
